(set-logic HORN)
(declare-fun !inv0 (Int (Array Int Int) Int Int ) Bool)
(declare-fun !inv1 (Int (Array Int Int) Int Int ) Bool)
(assert (forall ((SIZE@0 Int)(array@0 (Array Int Int))(num@0 Int)(i@1 Int)) (=> (and (> |SIZE@0| 0) (< |num@0| |SIZE@0|) (= |i@1| 0)) (!inv0 |SIZE@0| |array@0| |i@1| |num@0|))))
(assert (forall ((SIZE@0 Int)(array@0 (Array Int Int))(i@0 Int)(num@0 Int)) (=> (and (!inv0 |SIZE@0| |array@0| |i@0| |num@0|) (< |i@0| |num@0|) (= (mod (select |array@0| |i@0|) 2) 0) (not (= (mod (select |array@0| |i@0|) 2) 0))) false)))
(assert (forall ((SIZE@0 Int)(array@0 (Array Int Int))(i@0 Int)(num@0 Int)(i@1 Int)) (=> (and (!inv0 |SIZE@0| |array@0| |i@0| |num@0|) (not (< |i@0| |num@0|)) (= |i@1| 0)) (!inv1 |SIZE@0| |array@0| |i@1| |num@0|))))
(assert (forall ((SIZE@0 Int)(array@0 (Array Int Int))(i@0 Int)(num@0 Int)) (=> (and (!inv1 |SIZE@0| |array@0| |i@0| |num@0|) (< |i@0| |num@0|) (not (= (mod (select |array@0| |i@0|) 2) 0)) (not (= (mod (select |array@0| |i@0|) 2) 0))) false)))
(assert (forall ((SIZE@0 Int)(array@0 (Array Int Int))(i@0 Int)(num@0 Int)(i@1 Int)) (=> (and (!inv0 |SIZE@0| |array@0| |i@0| |num@0|) (= |i@1| (+ |i@0| 1)) (< |i@0| |num@0|) (not (= (mod (select |array@0| |i@0|) 2) 0))) (!inv0 |SIZE@0| |array@0| |i@1| |num@0|))))
(assert (forall ((SIZE@0 Int)(array@0 (Array Int Int))(i@0 Int)(num@0 Int)(i@1 Int)) (=> (and (!inv0 |SIZE@0| |array@0| |i@0| |num@0|) (= |i@1| (+ |i@0| 1)) (< |i@0| |num@0|) (= (mod (select |array@0| |i@0|) 2) 0) (= (mod (select |array@0| |i@0|) 2) 0)) (!inv0 |SIZE@0| |array@0| |i@1| |num@0|))))
(assert (forall ((SIZE@0 Int)(array@0 (Array Int Int))(i@0 Int)(num@0 Int)(i@1 Int)) (=> (and (!inv1 |SIZE@0| |array@0| |i@0| |num@0|) (= |i@1| (+ |i@0| 1)) (< |i@0| |num@0|) (not (= (mod (select |array@0| |i@0|) 2) 0)) (= (mod (select |array@0| |i@0|) 2) 0)) (!inv1 |SIZE@0| |array@0| |i@1| |num@0|))))
(assert (forall ((SIZE@0 Int)(array@0 (Array Int Int))(i@0 Int)(num@0 Int)(i@1 Int)) (=> (and (!inv1 |SIZE@0| |array@0| |i@0| |num@0|) (= |i@1| (+ |i@0| 1)) (< |i@0| |num@0|) (not (not (= (mod (select |array@0| |i@0|) 2) 0)))) (!inv1 |SIZE@0| |array@0| |i@1| |num@0|))))
(check-sat)